50 1225
1 2 417
1 3 267
1 4 285
1 5 192
1 6 591
1 7 301
1 8 533
1 9 547
1 10 565
1 11 367
1 12 578
1 13 634
1 14 642
1 15 444
1 16 220
1 17 726
1 18 435
1 19 553
1 20 373
1 21 304
1 22 578
1 23 210
1 24 709
1 25 38
1 26 614
1 27 334
1 28 377
1 29 621
1 30 720
1 31 281
1 32 76
1 33 449
1 34 458
1 35 211
1 36 465
1 37 502
1 38 357
1 39 372
1 40 377
1 41 574
1 42 497
1 43 261
1 44 177
1 45 641
1 46 544
1 47 430
1 48 521
1 49 384
1 50 151
2 3 149
2 4 465
2 5 609
2 6 248
2 7 361
2 8 522
2 9 145
2 10 314
2 11 281
2 12 462
2 13 461
2 14 368
2 15 489
2 16 413
2 17 634
2 18 704
2 19 471
2 20 76
2 21 533
2 22 592
2 23 263
2 24 616
2 25 441
2 26 254
2 27 552
2 28 608
2 29 327
2 30 308
2 31 259
2 32 492
2 33 459
2 34 261
2 35 514
2 36 49
2 37 508
2 38 279
2 39 75
2 40 205
2 41 172
2 42 563
2 43 180
2 44 351
2 45 452
2 46 183
2 47 424
2 48 346
2 49 419
2 50 266
3 4 359
3 5 459
3 6 352
3 7 274
3 8 488
3 9 284
3 10 369
3 11 242
3 12 467
3 13 492
3 14 442
3 15 428
3 16 294
3 17 639
3 18 587
3 19 459
3 20 117
3 21 418
3 22 554
3 23 141
3 24 621
3 25 292
3 26 368
3 27 443
3 28 497
3 29 407
3 30 454
3 31 176
3 32 343
3 33 411
3 34 283
3 35 383
3 36 197
3 37 463
3 38 237
3 39 115
3 40 193
3 41 311
3 42 504
3 43 75
3 44 224
3 45 490
3 46 297
3 47 378
3 48 364
3 49 353
3 50 116
4 5 368
4 6 704
4 7 548
4 8 269
4 9 539
4 10 729
4 11 573
4 12 354
4 13 429
4 14 499
4 15 706
4 16 492
4 17 469
4 18 716
4 19 785
4 20 392
4 21 589
4 22 301
4 23 415
4 24 455
4 25 259
4 26 716
4 27 86
4 28 663
4 29 766
4 30 759
4 31 487
4 32 314
4 33 194
4 34 333
4 35 127
4 36 511
4 37 758
4 38 226
4 39 468
4 40 545
4 41 637
4 42 214
4 43 293
4 44 432
4 45 445
4 46 495
4 47 191
4 48 715
4 49 637
4 50 304
5 6 774
5 7 435
5 8 637
5 9 738
5 10 733
5 11 527
5 12 711
5 13 779
5 14 810
5 15 544
5 16 330
5 17 837
5 18 406
5 19 679
5 20 563
5 21 349
5 22 666
5 23 387
5 24 823
5 25 172
5 26 798
5 27 373
5 28 394
5 29 794
5 30 911
5 31 449
5 32 116
5 33 560
5 34 626
5 35 244
5 36 657
5 37 606
5 38 517
5 39 563
5 40 552
5 41 764
5 42 575
5 43 449
5 44 325
5 45 790
5 46 731
5 47 551
5 48 678
5 49 501
5 50 343
6 7 396
6 8 767
6 9 278
6 10 131
6 11 281
6 12 694
6 13 677
6 14 553
6 15 447
6 16 493
6 17 860
6 18 741
6 19 352
6 20 324
6 21 583
6 22 837
6 23 387
6 24 843
6 25 624
6 26 31
6 27 790
6 28 640
6 29 96
6 30 208
6 31 333
6 32 660
6 33 707
6 34 497
6 35 735
6 36 214
6 37 434
6 38 527
6 39 238
6 40 226
6 41 123
6 42 811
6 43 411
6 44 460
6 45 663
6 46 357
6 47 671
6 48 213
6 49 403
6 50 451
7 8 742
7 9 502
7 10 316
7 11 115
7 12 738
7 13 766
7 14 711
7 15 160
7 16 108
7 17 908
7 18 353
7 19 252
7 20 376
7 21 188
7 22 802
7 23 143
7 24 889
7 25 339
7 26 426
7 27 615
7 28 253
7 29 385
7 30 584
7 31 103
7 32 341
7 33 659
7 34 558
7 35 506
7 36 390
7 37 209
7 38 502
7 39 285
7 40 181
7 41 442
7 42 737
7 43 339
7 44 123
7 45 764
7 46 543
7 47 629
7 48 247
7 49 89
7 50 250
8 9 523
8 10 833
8 11 730
8 12 133
8 13 215
8 14 347
8 15 902
8 16 714
8 17 200
8 18 968
8 19 948
8 20 450
8 21 825
8 22 70
8 23 598
8 24 186
8 25 515
8 26 768
8 27 288
8 28 903
8 29 849
8 30 746
8 31 657
8 32 575
8 33 84
8 34 274
8 35 395
8 36 552
8 37 945
8 38 252
8 39 562
8 40 678
8 41 665
8 42 98
8 43 413
8 44 645
8 45 238
8 46 450
8 47 112
8 48 847
8 49 828
8 50 494
9 10 387
9 11 413
9 12 430
9 13 403
9 14 275
9 15 620
9 16 558
9 17 589
9 18 849
9 19 580
9 20 175
9 21 677
9 22 592
9 23 408
9 24 572
9 25 567
9 26 268
9 27 623
9 28 752
9 29 373
9 30 227
9 31 402
9 32 623
9 33 479
9 34 249
9 35 613
9 36 113
9 37 632
9 38 320
9 39 217
9 40 334
9 41 157
9 42 586
9 43 292
9 44 496
9 45 388
9 46 80
9 47 445
9 48 443
9 49 554
9 50 399
10 11 207
10 12 776
10 13 771
10 14 660
10 15 331
10 16 422
10 17 948
10 18 639
10 19 221
10 20 382
10 21 493
10 22 902
10 23 354
10 24 930
10 25 601
10 26 160
10 27 811
10 28 539
10 29 70
10 30 338
10 31 285
10 32 625
10 33 764
10 34 576
10 35 736
10 36 298
10 37 310
10 38 582
10 39 272
10 40 190
10 41 245
10 42 864
10 43 441
10 44 408
10 45 760
10 46 462
10 47 729
10 48 88
10 49 300
10 50 443
11 12 705
11 13 722
11 14 647
11 15 207
11 16 216
11 17 879
11 18 464
11 19 218
11 20 316
11 21 302
11 22 795
11 23 163
11 24 860
11 25 405
11 26 311
11 27 649
11 28 362
11 29 273
11 30 472
11 31 88
11 32 422
11 33 652
11 34 513
11 35 556
11 36 300
11 37 229
11 38 479
11 39 207
11 40 78
11 41 333
11 42 740
11 43 316
11 44 201
11 45 717
11 46 465
11 47 619
11 48 154
11 49 141
11 50 269
12 13 83
12 14 218
12 15 894
12 16 729
12 17 173
12 18 1003
12 19 918
12 20 399
12 21 848
12 22 185
12 23 596
12 24 155
12 25 568
12 26 690
12 27 396
12 28 929
12 29 783
12 30 645
12 31 643
12 32 633
12 33 164
12 34 200
12 35 481
12 36 482
12 37 930
12 38 237
12 39 516
12 40 643
12 41 582
12 42 229
12 43 399
12 44 657
12 45 105
12 46 352
12 47 162
12 48 804
12 49 820
12 50 504
13 14 154
13 15 919
13 16 769
13 17 187
13 18 1051
13 19 928
13 20 407
13 21 891
13 22 261
13 23 628
13 24 171
13 25 628
13 26 670
13 27 476
13 28 971
13 29 770
13 30 604
13 31 668
13 32 694
13 33 245
13 34 209
13 35 555
13 36 472
13 37 950
13 38 280
13 39 523
13 40 655
13 41 560
13 42 312
13 43 430
13 44 696
13 45 24
13 46 323
13 47 238
13 48 807
13 49 845
13 50 546
14 15 852
14 16 735
14 17 337
14 18 1027
14 19 838
14 20 335
14 21 859
14 22 404
14 23 584
14 24 323
14 25 645
14 26 542
14 27 563
14 28 939
14 29 648
14 30 457
14 31 608
14 32 711
14 33 347
14 34 184
14 35 613
14 36 365
14 37 875
14 38 294
14 39 440
14 40 572
14 41 431
14 42 437
14 43 399
14 44 664
14 45 132
14 46 197
14 47 326
14 48 707
14 49 780
14 50 524
15 16 226
15 17 1066
15 18 318
15 19 156
15 20 518
15 21 211
15 22 963
15 23 304
15 24 1047
15 25 482
15 26 478
15 27 770
15 28 226
15 29 400
15 30 653
15 31 251
15 32 470
15 33 820
15 34 709
15 35 655
15 36 507
15 37 62
15 38 660
15 39 414
15 40 286
15 41 527
15 42 897
15 43 496
15 44 274
15 45 916
15 46 673
15 47 790
15 48 243
15 49 74
15 50 410
16 17 893
16 18 293
16 19 350
16 20 408
16 21 124
16 22 768
16 23 153
16 24 876
16 25 256
16 26 521
16 27 551
16 28 203
16 29 490
16 30 669
16 31 166
16 32 244
16 33 630
16 34 567
16 35 431
16 36 451
16 37 286
16 38 492
16 39 343
16 40 268
16 41 522
16 42 695
16 43 341
16 44 72
16 45 771
16 46 586
16 47 603
16 48 356
16 49 173
16 50 225
17 18 1158
17 19 1091
17 20 572
17 21 1009
17 22 189
17 23 765
17 24 18
17 25 711
17 26 854
17 27 484
17 28 1089
17 29 951
17 30 791
17 31 815
17 32 773
17 33 278
17 34 373
17 35 595
17 36 651
17 37 1103
17 38 405
17 39 689
17 40 817
17 41 744
17 42 278
17 43 569
17 44 822
17 45 206
17 46 509
17 47 295
17 48 977
17 49 991
17 50 669
18 19 471
18 20 702
18 21 171
18 22 1014
18 23 447
18 24 1142
18 25 457
18 26 772
18 27 750
18 28 101
18 29 710
18 30 936
18 31 447
18 32 405
18 33 884
18 34 854
18 35 617
18 36 739
18 37 365
18 38 770
18 39 631
18 40 535
18 41 795
18 42 930
18 43 629
18 44 363
18 45 1054
18 46 880
18 47 863
18 48 554
18 49 339
18 50 506
19 20 521
19 21 364
19 22 1013
19 23 370
19 24 1073
19 25 592
19 26 381
19 27 859
19 28 382
19 29 282
19 30 560
19 31 299
19 32 592
19 33 870
19 34 721
19 35 756
19 36 474
19 37 107
19 38 696
19 39 405
19 40 274
19 41 456
19 42 958
19 43 534
19 44 375
19 45 921
19 46 645
19 47 837
19 48 140
19 49 177
19 50 481
20 21 532
20 22 519
20 23 255
20 24 554
20 25 392
20 26 331
20 27 478
20 28 610
20 29 400
20 30 372
20 31 273
20 32 449
20 33 385
20 34 200
20 35 448
20 36 119
20 37 545
20 38 203
20 39 116
20 40 247
20 41 245
20 42 488
20 43 118
20 44 340
20 45 401
20 46 180
20 47 349
20 48 404
20 49 445
20 50 226
21 22 876
21 23 276
21 24 992
21 25 335
21 26 613
21 27 637
21 28 80
21 29 564
21 30 772
21 31 276
21 32 300
21 33 740
21 34 690
21 35 508
21 36 567
21 37 272
21 38 612
21 39 460
21 40 369
21 41 629
21 42 798
21 43 464
21 44 196
21 45 893
21 46 709
21 47 716
21 48 414
21 49 199
21 50 345
22 23 659
22 24 180
22 25 557
22 26 838
22 27 301
22 28 953
22 29 919
22 30 815
22 31 720
22 32 615
22 33 143
22 34 344
22 35 421
22 36 622
22 37 1007
22 38 320
22 39 630
22 40 745
22 41 735
22 42 92
22 43 478
22 44 701
22 45 285
22 46 519
22 47 175
22 48 914
22 49 889
22 50 553
23 24 747
23 25 247
23 26 412
23 27 488
23 28 355
23 29 410
23 30 539
23 31 74
23 32 274
23 33 516
23 34 421
23 35 393
23 36 304
23 37 349
23 38 359
23 39 197
23 40 166
23 41 390
23 42 596
23 43 197
23 44 88
23 45 627
23 46 433
23 47 486
23 48 315
23 49 230
23 50 110
24 25 695
24 26 837
24 27 472
24 28 1071
24 29 933
24 30 776
24 31 797
24 32 757
24 33 263
24 34 354
24 35 581
24 36 633
24 37 1085
24 38 387
24 39 671
24 40 799
24 41 727
24 42 267
24 43 551
24 44 804
24 45 191
24 46 492
24 47 279
24 48 958
24 49 973
24 50 651
25 26 646
25 27 301
25 28 405
25 29 656
25 30 746
25 31 319
25 32 65
25 33 432
25 34 461
25 35 175
25 36 490
25 37 540
25 38 355
25 39 401
25 40 413
25 41 602
25 42 473
25 43 277
25 44 216
25 45 637
25 46 559
25 47 416
25 48 559
25 49 422
25 50 177
26 27 802
26 28 670
26 29 115
26 30 178
26 31 360
26 32 684
26 33 710
26 34 496
26 35 752
26 36 217
26 37 465
26 38 532
26 39 253
26 40 254
26 41 111
26 42 816
26 43 424
26 44 487
26 45 655
26 46 348
26 47 675
26 48 244
26 49 434
26 50 471
27 28 706
27 29 850
27 30 844
27 31 562
27 32 345
27 33 231
27 34 408
27 35 133
27 36 597
27 37 825
27 38 306
27 39 553
27 40 626
27 41 723
27 42 208
27 43 378
27 44 496
27 45 494
27 46 576
27 47 241
27 48 795
27 49 704
27 50 380
28 29 610
28 30 834
28 31 349
28 32 364
28 33 819
28 34 771
28 35 576
28 36 640
28 37 279
28 38 693
28 39 534
28 40 434
28 41 694
28 42 874
28 43 544
28 44 276
28 45 973
28 46 786
28 47 795
28 48 455
28 49 239
28 50 425
29 30 285
29 31 345
29 32 684
29 33 785
29 34 584
29 35 783
29 36 301
29 37 376
29 38 604
29 39 300
29 40 244
29 41 219
29 42 888
29 43 474
29 44 471
29 45 756
29 46 452
29 47 750
29 48 157
29 49 370
29 50 491
30 31 503
30 32 794
30 33 706
30 34 474
30 35 820
30 36 259
30 37 643
30 38 545
30 39 348
30 40 403
30 41 148
30 42 812
30 43 487
30 44 622
30 45 585
30 46 295
30 47 672
30 48 422
30 49 604
30 50 569
31 32 340
31 33 576
31 34 458
31 35 467
31 36 291
31 37 288
31 38 411
31 39 185
31 40 106
31 41 356
31 42 661
31 43 246
31 44 127
31 45 665
31 46 441
31 47 545
31 48 241
31 49 176
31 50 182
32 33 494
32 34 527
32 35 212
32 36 541
32 37 530
32 38 421
32 39 446
32 40 441
32 41 648
32 42 528
32 43 336
32 44 222
32 45 703
32 46 620
32 47 478
32 48 575
32 49 417
32 50 226
33 34 232
33 35 322
33 36 493
33 37 864
33 38 181
33 39 492
33 40 603
33 41 612
33 42 106
33 43 336
33 44 560
33 45 264
33 46 413
33 47 35
33 48 773
33 49 746
33 50 411
34 35 437
34 36 283
34 37 741
34 38 113
34 39 317
34 40 447
34 41 391
34 42 338
34 43 226
34 44 494
34 45 206
34 46 181
34 47 199
34 48 604
34 49 635
34 50 348
35 36 563
35 37 712
35 38 325
35 39 498
35 40 546
35 41 686
35 42 330
35 43 333
35 44 383
35 45 569
35 46 582
35 47 318
35 48 707
35 49 592
35 50 293
36 37 521
36 38 316
36 39 108
36 40 221
36 41 125
36 42 599
36 43 229
36 44 392
36 45 461
36 46 171
36 47 458
36 48 342
36 49 441
36 50 314
37 38 699
37 39 435
37 40 303
37 41 525
37 42 945
37 43 534
37 44 329
37 45 946
37 46 690
37 47 833
37 48 222
37 49 121
37 50 458
38 39 310
38 40 425
38 41 438
38 42 284
38 43 164
38 44 420
38 45 286
38 46 270
38 47 146
38 48 594
38 49 586
38 50 267
39 40 133
39 41 201
39 42 592
39 43 175
39 44 285
39 45 516
39 46 259
39 47 457
39 48 287
39 49 344
39 50 223
40 41 260
40 42 697
40 43 268
40 44 233
40 45 648
40 46 387
40 47 569
40 48 171
40 49 220
40 50 253
41 42 718
41 43 353
41 44 474
41 45 544
41 46 237
41 47 577
41 48 315
41 49 471
41 50 424
42 43 428
42 44 630
42 45 335
42 46 519
42 47 141
42 48 868
42 49 825
42 50 486
43 44 268
43 45 430
43 46 283
43 47 302
43 48 440
43 49 421
43 50 126
44 45 698
44 46 519
44 47 533
44 48 353
44 49 209
44 50 152
45 46 307
45 47 254
45 48 798
45 49 841
45 50 548
46 47 381
46 48 512
46 49 603
46 50 403
47 48 739
47 49 716
47 50 382
48 49 217
48 50 416
49 50 338
